;here '2*S' is 'SIZE' of original program

(declare-var S Int)
(declare-var i Int)
(declare-var i1 Int)
(declare-var a (Array Int Int))
(declare-var a1 (Array Int Int))
(declare-var a2 (Array Int Int))
(declare-var val1 Int)
(declare-var val2 Int)
(declare-var defval Int)
(declare-var fixval Int)

(declare-rel inv ((Array Int Int) Int Int Int Int))
(declare-rel fail ())

(rule (=> (and (> S 0) (= defval 0) (= fixval 10) (= i 1))
          (inv a i S defval fixval)))

(rule (=> (and
           (inv a i S defval fixval)
           (<= i (* 1 S))
           (= i1 (+ i 1))
           (= a1 (ite (= 0 val2)
              (store a (- (* 2 i) 2) 10)
              (store a (- (* 2 i) 2) val2)))
           (= a2 (ite (= 0 val1)
              (store a1 (- (* 2 i) 1) 10)
              (store a1 (- (* 2 i) 1) val1))))
          (inv a2 i1 S defval fixval)))

(rule (=> (and
           (inv a i S defval fixval)
           (not (<= i (* 1 S)))
           (<= 0 i1)
           (< i1 (* 2 S))
           (not (not (= (select a i1) 0))))
          fail))

(query fail)
